NAME          COPTPROB
OBJSENSE
  MIN
ROWS
 N  __OBJ___
 L  C15     
 L  C20     
 L  C113    
 L  C164    
 L  C207    
 L  C239    
 L  C258    
 L  C259    
 L  C266    
COLUMNS
    MARKER    'MARKER'                 'INTORG'
    x7        __OBJ___  -1
    x7        C15       1
    x7        C258      1
    x7        C266      1
    x23       __OBJ___  -1
    x23       C164      1
    x23       C266      1
    x47       __OBJ___  -1
    x47       C20       1
    x47       C207      1
    x47       C259      1
    x56       __OBJ___  -1
    x56       C164      1
    x56       C259      1
    x67       __OBJ___  -1
    x67       C113      1
    x67       C207      1
    x76       __OBJ___  -1
    x76       C20       1
    x76       C258      1
    x80       __OBJ___  -1
    x80       C113      1
    x80       C239      1
    x99       __OBJ___  -1
    x99       C15       1
    x99       C239      1
    MARKER    'MARKER'                 'INTEND'
RHS
    RHS       __OBJ___  83
    RHS       C15       1
    RHS       C20       1
    RHS       C113      1
    RHS       C164      1
    RHS       C207      1
    RHS       C239      1
    RHS       C258      1
    RHS       C259      1
    RHS       C266      1
BOUNDS
 UP BOUND     x7        1
 UP BOUND     x23       1
 UP BOUND     x47       1
 UP BOUND     x56       1
 UP BOUND     x67       1
 UP BOUND     x76       1
 UP BOUND     x80       1
 UP BOUND     x99       1
ENDATA
